solution status: optimal solution found
objective value:                     164128.148142858
d11(0,0)                                            1 	(obj:0)
d11(1,1)                                            1 	(obj:0)
d11(2,5)                                            1 	(obj:0)
d11(3,7)                                            1 	(obj:0)
d11(3,8)                                            1 	(obj:0)
d11(3,9)                                            1 	(obj:0)
d11(3,10)                                           1 	(obj:0)
d11(3,11)                                           1 	(obj:0)
d11(3,12)                                           1 	(obj:0)
d11(3,13)                                           1 	(obj:0)
d11(3,14)                                           1 	(obj:0)
d11(4,15)                                           1 	(obj:0)
d11(4,17)                                           1 	(obj:0)
d11(4,19)                                           1 	(obj:0)
d11(4,21)                                           1 	(obj:0)
d11(4,23)                                           1 	(obj:0)
d11(4,25)                                           1 	(obj:0)
d11(4,27)                                           1 	(obj:0)
d11(4,29)                                           1 	(obj:0)
d11(5,31)                            1.00000000000001 	(obj:0)
d11(5,35)                            1.00000000000001 	(obj:0)
d11(5,37)                            1.00000000000001 	(obj:0)
d11(5,39)                            1.00000000000001 	(obj:0)
d11(5,41)                            1.00000000000001 	(obj:0)
d11(5,43)                            1.00000000000001 	(obj:0)
d11(5,45)                            1.00000000000001 	(obj:0)
d11(5,47)                            1.00000000000001 	(obj:0)
d11(5,49)                            1.00000000000001 	(obj:0)
d11(5,51)                            1.00000000000001 	(obj:0)
d11(5,53)                            1.00000000000001 	(obj:0)
d11(5,55)                            1.00000000000001 	(obj:0)
d11(5,57)                            1.00000000000001 	(obj:0)
d11(5,59)                                           1 	(obj:0)
d11(5,61)                            1.00000000000001 	(obj:0)
d12(2,4)                                            1 	(obj:0)
d12(2,6)                                            1 	(obj:0)
d12(4,16)                                           1 	(obj:0)
d12(4,18)                                           1 	(obj:0)
d12(4,20)                                           1 	(obj:0)
d12(4,22)                                           1 	(obj:0)
d12(4,24)                                           1 	(obj:0)
d12(4,26)                                           1 	(obj:0)
d12(4,28)                                           1 	(obj:0)
d12(4,30)                                           1 	(obj:0)
d12(5,32)                                           1 	(obj:0)
d12(5,34)                                           1 	(obj:0)
d12(5,36)                                           1 	(obj:0)
d12(5,38)                                           1 	(obj:0)
d12(5,40)                                           1 	(obj:0)
d12(5,42)                                           1 	(obj:0)
d12(5,44)                                           1 	(obj:0)
d12(5,46)                                           1 	(obj:0)
d12(5,48)                                           1 	(obj:0)
d12(5,50)                                           1 	(obj:0)
d12(5,52)                                           1 	(obj:0)
d12(5,54)                                           1 	(obj:0)
d12(5,56)                                           1 	(obj:0)
d12(5,58)                                           1 	(obj:0)
d12(5,60)                                           1 	(obj:0)
d12(5,62)                                           1 	(obj:0)
d21(3,7)                                            1 	(obj:0)
d21(3,8)                                            1 	(obj:0)
d21(3,9)                                            1 	(obj:0)
d21(3,11)                                           1 	(obj:0)
d21(4,15)                                           1 	(obj:0)
d21(4,16)                                           1 	(obj:0)
d21(4,17)                                           1 	(obj:0)
d21(4,19)                                           1 	(obj:0)
d21(4,23)                                           1 	(obj:0)
d21(5,31)                                           1 	(obj:0)
d21(5,32)                                           1 	(obj:0)
d21(5,33)                                           1 	(obj:0)
d21(5,34)                                           1 	(obj:0)
d21(5,35)                                           1 	(obj:0)
d21(5,36)                                           1 	(obj:0)
d21(5,37)                                           1 	(obj:0)
d21(5,39)                                           1 	(obj:0)
d21(5,40)                                           1 	(obj:0)
d21(5,41)                                           1 	(obj:0)
d21(5,43)                                           1 	(obj:0)
d21(5,47)                                           1 	(obj:0)
d21(5,48)                                           1 	(obj:0)
d21(5,49)                                           1 	(obj:0)
d21(5,55)                                           1 	(obj:0)
y2(5,40)                             1385.48851144895 	(obj:0)
y2(5,42)                             1385.48851144895 	(obj:0)
y2(5,44)                             1385.48851144895 	(obj:0)
y2(5,46)                             1385.48851144895 	(obj:0)
y2(5,48)                             1385.48851144895 	(obj:0)
y2(5,50)                             1385.48851144895 	(obj:0)
y2(5,52)                             1385.48851144895 	(obj:0)
y2(5,54)                             1385.48851144895 	(obj:0)
y2(5,56)                             1385.48851144895 	(obj:0)
y2(5,58)                             1385.48851144895 	(obj:0)
y2(5,60)                             1385.48851144895 	(obj:0)
y2(5,62)                             1385.48851144895 	(obj:0)
STE(1,1)                             7035.75010111115 	(obj:0)
STE(0,0)                                         9450 	(obj:0)
STE(1,2)                                         8694 	(obj:0)
STE(2,3)                             6279.75010111115 	(obj:0)
STE(2,4)                             7595.96418698766 	(obj:0)
STE(2,5)                              7938.0000000009 	(obj:0)
STE(2,6)                             9254.21408587651 	(obj:0)
STE(3,7)                             3865.50020222234 	(obj:0)
STE(3,8)                             5523.75010111116 	(obj:0)
STE(3,9)                             5181.71428809884 	(obj:0)
STE(3,10)                            6839.96418698766 	(obj:0)
STE(3,11)                            5523.75010111208 	(obj:0)
STE(3,12)                             7182.0000000009 	(obj:0)
STE(3,13)                            6839.96418698769 	(obj:0)
STE(3,14)                            8498.21408587651 	(obj:0)
STE(4,15)                            3109.50020222234 	(obj:0)
STE(4,16)                            4425.71428809881 	(obj:0)
STE(4,17)                             4767.7501011112 	(obj:0)
STE(4,18)                            6083.96418698763 	(obj:0)
STE(4,19)                            4425.71428809889 	(obj:0)
STE(4,20)                            5741.92837397531 	(obj:0)
STE(4,21)                            6083.96418698766 	(obj:0)
STE(4,22)                            7400.17827286413 	(obj:0)
STE(4,23)                            4767.75010111208 	(obj:0)
STE(4,24)                            6083.96418698855 	(obj:0)
STE(4,25)                             6426.0000000009 	(obj:0)
STE(4,26)                            7742.21408587737 	(obj:0)
STE(4,27)                            6083.96418698769 	(obj:0)
STE(4,28)                            7400.17827286416 	(obj:0)
STE(4,29)                            7742.21408587651 	(obj:0)
STE(4,30)                            9058.42817175298 	(obj:0)
STE(5,31)                            2353.50020222234 	(obj:0)
STE(5,32)                            3669.71428809884 	(obj:0)
STE(5,33)                            3669.71428809881 	(obj:0)
STE(5,34)                            4985.92837397531 	(obj:0)
STE(5,35)                             4011.7501011112 	(obj:0)
STE(5,36)                            5327.96418698771 	(obj:0)
STE(5,37)                            5327.96418698763 	(obj:0)
STE(5,38)                            6644.17827286413 	(obj:0)
STE(5,39)                            3669.71428809889 	(obj:0)
STE(5,40)                            4985.92837397539 	(obj:0)
STE(5,41)                            4985.92837397531 	(obj:0)
STE(5,42)                            6302.14245985182 	(obj:0)
STE(5,43)                            5327.96418698766 	(obj:0)
STE(5,44)                            6644.17827286417 	(obj:0)
STE(5,45)                            6644.17827286413 	(obj:0)
STE(5,46)                            7960.39235874064 	(obj:0)
STE(5,47)                            4011.75010111208 	(obj:0)
STE(5,48)                            5327.96418698859 	(obj:0)
STE(5,49)                            5327.96418698855 	(obj:0)
STE(5,50)                            6644.17827286506 	(obj:0)
STE(5,51)                             5670.0000000009 	(obj:0)
STE(5,52)                             6986.2140858774 	(obj:0)
STE(5,53)                            6986.21408587737 	(obj:0)
STE(5,54)                            8302.42817175387 	(obj:0)
STE(5,55)                            5327.96418698769 	(obj:0)
STE(5,56)                             6644.1782728642 	(obj:0)
STE(5,57)                            6644.17827286416 	(obj:0)
STE(5,58)                            7960.39235874067 	(obj:0)
STE(5,59)                            6986.21408587651 	(obj:0)
STE(5,60)                            8302.42817175301 	(obj:0)
STE(5,61)                            8302.42817175298 	(obj:0)
STE(5,62)                            9618.64225762948 	(obj:0)
AVE(1)                                   3216.9117036 	(obj:0)
WB(2)                                    3366.1541945 	(obj:0)
AVE(2)                                   3366.1541945 	(obj:0)
AVE(3)                                   3515.3966854 	(obj:0)
WB(4)                                3515.39406545826 	(obj:0)
AVE(4)                               3515.39406545826 	(obj:0)
WB(5)                                 493.74392065776 	(obj:0)
AVE(5)                               3167.15385943327 	(obj:0)
WG(1)                                    3216.9117036 	(obj:10)
WG(3)                                    3515.3966854 	(obj:10)
WG(5)                                2673.40993877551 	(obj:10)
BG(1)                                979.380795379591 	(obj:10)
BG(2)                                2673.40993877551 	(obj:10)
BG(3)                                680.895813579563 	(obj:10)
BG(4)                                2673.40993877559 	(obj:10)
y1(1,1)                              1492.42490899996 	(obj:0)
y1(3,7)                              1492.42490899993 	(obj:0)
y1(3,9)                              1492.42490899993 	(obj:0)
y1(3,11)                             1492.42490899993 	(obj:0)
y1(3,13)                             1492.42490899993 	(obj:0)
y2(2,4)                              1385.48851144895 	(obj:0)
y2(2,6)                              1385.48851144895 	(obj:0)
y2(4,16)                             1385.48851144891 	(obj:0)
y2(4,18)                             1385.48851144891 	(obj:0)
y2(4,20)                             1385.48851144891 	(obj:0)
y2(4,22)                             1385.48851144891 	(obj:0)
y2(4,24)                             1385.48851144891 	(obj:0)
y2(4,26)                             1385.48851144891 	(obj:0)
y2(4,28)                             1385.48851144891 	(obj:0)
y2(4,30)                             1385.48851144891 	(obj:0)
y2(5,32)                             1385.48851144895 	(obj:0)
y2(5,34)                             1385.48851144895 	(obj:0)
y2(5,36)                             1385.48851144895 	(obj:0)
y2(5,38)                             1385.48851144895 	(obj:0)
